p cnf 66 186
c 47 45 47 47 

1 2 0
3 4 0
5 6 0
7 8 0
9 10 0
11 12 0
13 14 0
15 16 0
-2 -3 -6 -8 -9 -12 -14 -16 0
-1 -4 -6 -7 -10 -11 -13 -16 0
-2 -3 -6 -8 -9 -11 -14 -15 0
-1 -3 -5 -7 -9 -12 -13 -15 0
1 -17 0
3 -17 0
11 -17 0
13 -17 0
15 -17 0
2 -18 0
3 -18 0
6 -18 0
8 -18 0
9 -18 0
12 -18 0
13 -18 0
16 -18 0
2 -19 0
4 -19 0
5 -19 0
8 -19 0
10 -19 0
11 -19 0
13 -19 0
16 -19 0
7 -20 0
9 -20 0
11 -20 0
15 -20 0
1 -21 0
3 -21 0
8 -21 0
9 -21 0
11 -21 0
13 -21 0
16 -21 0
1 -22 0
12 -22 0
16 -22 0
23 -24 0
25 -24 0
26 -24 0
27 -24 0
28 -24 0
29 -24 0
30 -24 0
31 -32 0
33 -32 0
34 -32 0
35 -32 0
36 -32 0
37 -32 0
5 -17 0
8 -17 0
10 -17 0
38 -39 0
40 -39 0
25 -39 0
28 -39 0
30 -39 0
41 -42 0
33 -42 0
43 -42 0
2 -20 0
4 -20 0
5 -20 0
14 -20 0
23 -44 0
40 -44 0
25 -44 0
27 -44 0
45 -44 0
41 -46 0
33 -46 0
34 -46 0
35 -46 0
4 -22 0
5 -22 0
8 -22 0
10 -22 0
14 -22 0
24 32 17 0
39 42 20 0
44 46 22 0
23 38 0
47 40 0
25 48 0
49 26 0
50 27 0
28 51 0
29 52 0
30 45 0
-38 -47 -48 -26 -50 -51 -52 -45 0
-23 -40 -48 -49 -27 -28 -29 -45 0
-38 -47 -48 -26 -50 -28 -52 -30 0
-23 -47 -25 -49 -50 -51 -29 -30 0
47 -24 0
38 -53 0
47 -53 0
48 -53 0
26 -53 0
50 -53 0
51 -53 0
29 -53 0
45 -53 0
38 -54 0
40 -54 0
25 -54 0
26 -54 0
27 -54 0
28 -54 0
29 -54 0
45 -54 0
35 -55 0
49 -39 0
50 -39 0
52 -39 0
23 -56 0
47 -56 0
25 -56 0
26 -56 0
50 -56 0
28 -56 0
29 -56 0
45 -56 0
5 -21 0
26 -44 0
51 -44 0
52 -44 0
54 55 19 0
56 57 21 0
31 58 0
59 41 0
33 60 0
61 34 0
62 35 0
36 63 0
64 43 0
37 65 0
-58 -59 -60 -34 -62 -63 -43 -65 0
-31 -41 -60 -61 -35 -36 -64 -65 0
-58 -59 -60 -34 -62 -36 -43 -37 0
-31 -59 -33 -61 -62 -63 -64 -37 0
59 -32 0
64 -32 0
58 -66 0
59 -66 0
60 -66 0
34 -66 0
62 -66 0
63 -66 0
64 -66 0
65 -66 0
58 -55 0
41 -55 0
33 -55 0
34 -55 0
36 -55 0
64 -55 0
65 -55 0
58 -42 0
61 -42 0
62 -42 0
36 -42 0
37 -42 0
31 -57 0
59 -57 0
33 -57 0
34 -57 0
62 -57 0
36 -57 0
64 -57 0
65 -57 0
31 -46 0
63 -46 0
43 -46 0
65 -46 0
53 66 18 0
